\ENCODING=ISO-8859-1
\Problem name: SVM

Minimize
 obj: 0.001 z0 + 0.001 z1 + 0.001 z2 + 0.001 z3 + 0.001 z4 + 0.001 z5
      + 0.001 z6 + 0.001 z7 + 0.001 z8 + 0.001 z9 + 0.001 z10 + 0.001 z11
      + 0.001 z12 + 0.001 z13 + 0.001 z14 + 0.001 z15 + 0.001 z16 + 0.001 z17
      + 0.001 z18 + 0.001 z19 + 0.001 z20 + 0.001 z21 + 0.001 z22 + 0.001 z23
      + 0.001 z24 + 0.001 z25 + 0.001 z26 + 0.001 z27 + 0.001 z28 + 0.001 z29
      + 0.001 z30 + 0.001 z31 + 0.001 z32 + 0.001 z33 + 0.001 z34 + 0.001 z35
      + 0.001 z36 + 0.001 z37 + 0.001 z38 + 0.001 z39 + 0.001 z40 + 0.001 z41
      + 0.001 z42 + 0.001 z43 + 0.001 z44 + 0.001 z45 + 0.001 z46 + 0.001 z47
      + 0.001 z48 + 0.001 z49 + 0.001 z50 + 0.001 z51 + 0.001 z52 + 0.001 z53
      + 0.001 z54 + 0.001 z55 + 0.001 z56 + 0.001 z57 + 0.001 z58 + 0.001 z59
      + 0.001 z60 + 0.001 z61 + 0.001 z62 + 0.001 z63 + 0.001 z64 + 0.001 z65
      + 0.001 z66 + 0.001 z67 + 0.001 z68 + 0.001 z69 + 0.001 z70 + 0.001 z71
      + 0.001 z72 + 0.001 z73 + 0.001 z74 + 0.001 z75 + 0.001 z76 + 0.001 z77
      + 0.001 z78 + 0.001 z79 + 0.001 z80 + 0.001 z81 + 0.001 z82 + 0.001 z83
      + 0.001 z84 + 0.001 z85 + 0.001 z86 + 0.001 z87 + 0.001 z88 + 0.001 z89
      + 0.001 z90 + 0.001 z91 + 0.001 z92 + 0.001 z93 + 0.001 z94 + 0.001 z95
      + 0.001 z96 + 0.001 z97 + 0.001 z98 + 0.001 z99 + 0.001 z100 + 0.001 z101
      + 0.001 z102 + 0.001 z103 + 0.001 z104 + 0.001 z105 + 0.001 z106
      + 0.001 z107 + 0.001 z108 + 0.001 z109 + 0.001 z110 + 0.001 z111
      + 0.001 z112 + 0.001 z113 + 0.001 z114 + 0.001 z115 + 0.001 z116
      + 0.001 z117 + 0.001 z118 + 0.001 z119 + 0.001 z120 + 0.001 z121
      + 0.001 z122 + 0.001 z123 + 0.001 z124 + 0.001 z125 + 0.001 z126
      + 0.001 z127 + 0.001 z128 + 0.001 z129 + 0.001 z130 + 0.001 z131
      + 0.001 z132 + 0.001 z133 + 0.001 z134 + 0.001 z135 + 0.001 z136
      + 0.001 z137 + 0.001 z138 + 0.001 z139 + 0.001 z140 + 0.001 z141
      + 0.001 z142 + 0.001 z143 + 0.001 z144 + 0.001 z145 + 0.001 z146
      + 0.001 z147 + 0.001 z148 + 0.001 z149 + 0.001 z150 + 0.001 z151
      + 0.001 z152 + 0.001 z153 + 0.001 z154 + 0.001 z155 + 0.001 z156
      + 0.001 z157 + 0.001 z158 + 0.001 z159 + 0.001 z160 + 0.001 z161
      + 0.001 z162 + 0.001 z163 + 0.001 z164 + 0.001 z165 + 0.001 z166
      + 0.001 z167 + 0.001 z168 + 0.001 z169 + 0.001 z170 + 0.001 z171
      + 0.001 z172 + 0.001 z173 + 0.001 z174 + 0.001 z175 + 0.001 z176
      + 0.001 z177 + 0.001 z178 + 0.001 z179 + 0.001 z180 + 0.001 z181
      + 0.001 z182 + 0.001 z183 + 0.001 z184 + 0.001 z185 + 0.001 z186
      + 0.001 z187 + 0.001 z188 + 0.001 z189 + 0.001 z190 + 0.001 z191
      + 0.001 z192 + 0.001 z193 + 0.001 z194 + 0.001 z195 + 0.001 z196
      + 0.001 z197 + 0.001 z198 + 0.001 z199 + 0.001 z200 + 0.001 z201
      + 0.001 z202 + 0.001 z203 + 0.001 z204 + 0.001 z205 + 0.001 z206
      + 0.001 z207 + 0.001 z208 + 0.001 z209 + 0.001 z210 + 0.001 z211
      + 0.001 z212 + 0.001 z213 + 0.001 z214 + 0.001 z215 + 0.001 z216
      + 0.001 z217 + 0.001 z218 + 0.001 z219 + 0.001 z220 + 0.001 z221
      + 0.001 z222 + 0.001 z223 + 0.001 z224 + 0.001 z225 + 0.001 z226
      + 0.001 z227 + 0.001 z228 + 0.001 z229 + 0.001 z230 + 0.001 z231
      + 0.001 z232 + 0.001 z233 + 0.001 z234 + 0.001 z235 + 0.001 z236
      + 0.001 z237 + 0.001 z238 + 0.001 z239 + 0.001 z240 + 0.001 z241
      + 0.001 z242 + 0.001 z243 + 0.001 z244 + 0.001 z245 + 0.001 z246
      + 0.001 z247 + 0.001 z248 + 0.001 z249 + 0.001 z250 + 0.001 z251
      + 0.001 z252 + 0.001 z253 + 0.001 z254 + 0.001 z255 + 0.001 z256
      + 0.001 z257 + 0.001 z258 + 0.001 z259 + 0.001 z260 + 0.001 z261
      + 0.001 z262 + 0.001 z263 + 0.001 z264 + 0.001 z265 + 0.001 z266
      + 0.001 z267 + 0.001 z268 + 0.001 z269 + [ w0 ^2 + w1 ^2 + w2 ^2 + w3 ^2
      + w4 ^2 + w5 ^2 + w6 ^2 + w7 ^2 + w8 ^2 + w9 ^2 + w10 ^2 + w11 ^2
      + w12 ^2 + w13 ^2 + w14 ^2 + w15 ^2 + w16 ^2 + w17 ^2 + w18 ^2 + w19 ^2
      ] / 2
Subject To
 c1:   - 70 w0 - w1 - w5 - 130 w6 - 322 w7 - w11 - 109 w12 - 2.4 w14 - 2 w15
       - 3 w16 - w17 - b + 10000 z0 >= 1
 c2:   67 w0 + w4 + 115 w6 + 564 w7 + w11 + 160 w12 + 1.6 w14 + 2 w15 + w19 + b
       + 10000 z1 >= 1
 c3:   - 57 w0 - w1 - w3 - 124 w6 - 261 w7 - w9 - 141 w12 - 0.3 w14 - w15 - w19
       - b + 10000 z2 >= 1
 c4:   64 w0 + w1 + w5 + 128 w6 + 263 w7 + w9 + 105 w12 + w13 + 0.2 w14 + 2 w15
       + w16 + w19 + b + 10000 z3 >= 1
 c5:   74 w0 + w3 + 120 w6 + 269 w7 + w11 + 121 w12 + w13 + 0.2 w14 + w15 + w16
       + w17 + b + 10000 z4 >= 1
 c6:   65 w0 + w1 + w5 + 120 w6 + 177 w7 + w9 + 140 w12 + 0.4 w14 + w15 + w19
       + b + 10000 z5 >= 1
 c7:   - 56 w0 - w1 - w4 - 130 w6 - 256 w7 - w8 - w11 - 142 w12 - w13 - 0.6 w14
       - 2 w15 - w16 - w18 - b + 10000 z6 >= 1
 c8:   - 59 w0 - w1 - w5 - 110 w6 - 239 w7 - w11 - 142 w12 - w13 - 1.2 w14
       - 2 w15 - w16 - w19 - b + 10000 z7 >= 1
 c9:   - 60 w0 - w1 - w5 - 140 w6 - 293 w7 - w11 - 170 w12 - 1.2 w14 - 2 w15
       - 2 w16 - w19 - b + 10000 z8 >= 1
 c10:  - 63 w0 - w5 - 150 w6 - 407 w7 - w11 - 154 w12 - 4 w14 - 2 w15 - 3 w16
       - w19 - b + 10000 z9 >= 1
 c11:  59 w0 + w1 + w5 + 135 w6 + 234 w7 + w9 + 161 w12 + 0.5 w14 + 2 w15 + w19
       + b + 10000 z10 >= 1
 c12:  53 w0 + w1 + w5 + 142 w6 + 226 w7 + w11 + 111 w12 + w13 + w15 + w19 + b
       + 10000 z11 >= 1
 c13:  44 w0 + w1 + w4 + 140 w6 + 235 w7 + w11 + 180 w12 + w15 + w17 + b
       + 10000 z12 >= 1
 c14:  - 61 w0 - w1 - w2 - 134 w6 - 234 w7 - w9 - 145 w12 - 2.6 w14 - 2 w15
       - 2 w16 - w17 - b + 10000 z13 >= 1
 c15:  57 w0 + w5 + 128 w6 + 303 w7 + w11 + 159 w12 + w15 + w16 + w17 + b
       + 10000 z14 >= 1
 c16:  71 w0 + w5 + 112 w6 + 149 w7 + w9 + 125 w12 + 1.6 w14 + 2 w15 + w17 + b
       + 10000 z15 >= 1
 c17:  - 46 w0 - w1 - w5 - 140 w6 - 311 w7 - w9 - 120 w12 - w13 - 1.8 w14
       - 2 w15 - 2 w16 - w19 - b + 10000 z16 >= 1
 c18:  - 53 w0 - w1 - w5 - 140 w6 - 203 w7 - w8 - w11 - 155 w12 - w13 - 3.1 w14
       - 3 w15 - w19 - b + 10000 z17 >= 1
 c19:  64 w0 + w1 + w2 + 110 w6 + 211 w7 + w11 + 144 w12 + w13 + 1.8 w14
       + 2 w15 + w17 + b + 10000 z18 >= 1
 c20:  40 w0 + w1 + w2 + 140 w6 + 199 w7 + w9 + 178 w12 + w13 + 1.4 w14 + w15
       + w19 + b + 10000 z19 >= 1
 c21:  - 67 w0 - w1 - w5 - 120 w6 - 229 w7 - w11 - 129 w12 - w13 - 2.6 w14
       - 2 w15 - 2 w16 - w19 - b + 10000 z20 >= 1
 c22:  48 w0 + w1 + w3 + 130 w6 + 245 w7 + w11 + 180 w12 + 0.2 w14 + 2 w15
       + w17 + b + 10000 z21 >= 1
 c23:  43 w0 + w1 + w5 + 115 w6 + 303 w7 + w9 + 181 w12 + 1.2 w14 + 2 w15 + w17
       + b + 10000 z22 >= 1
 c24:  47 w0 + w1 + w5 + 112 w6 + 204 w7 + w9 + 143 w12 + 0.1 w14 + w15 + w17
       + b + 10000 z23 >= 1
 c25:  54 w0 + w3 + 132 w6 + 288 w7 + w8 + w11 + 159 w12 + w13 + w15 + w16
       + w17 + b + 10000 z24 >= 1
 c26:  48 w0 + w4 + 130 w6 + 275 w7 + w9 + 139 w12 + 0.2 w14 + w15 + w17 + b
       + 10000 z25 >= 1
 c27:  46 w0 + w5 + 138 w6 + 243 w7 + w11 + 152 w12 + w13 + 2 w15 + w17 + b
       + 10000 z26 >= 1
 c28:  51 w0 + w4 + 120 w6 + 295 w7 + w11 + 157 w12 + 0.6 w14 + w15 + w17 + b
       + 10000 z27 >= 1
 c29:  - 58 w0 - w1 - w4 - 112 w6 - 230 w7 - w11 - 165 w12 - 2.5 w14 - 2 w15
       - w16 - w19 - b + 10000 z28 >= 1
 c30:  71 w0 + w4 + 110 w6 + 265 w7 + w8 + w11 + 130 w12 + w15 + w16 + w17 + b
       + 10000 z29 >= 1
 c31:  - 57 w0 - w1 - w4 - 128 w6 - 229 w7 - w11 - 150 w12 - 0.4 w14 - 2 w15
       - w16 - w19 - b + 10000 z30 >= 1
 c32:  66 w0 + w1 + w5 + 160 w6 + 228 w7 + w11 + 138 w12 + 2.3 w14 + w15 + w18
       + b + 10000 z31 >= 1
 c33:  37 w0 + w4 + 120 w6 + 215 w7 + w9 + 170 w12 + w15 + w17 + b + 10000 z32
       >= 1
 c34:  - 59 w0 - w1 - w5 - 170 w6 - 326 w7 - w11 - 140 w12 - w13 - 3.4 w14
       - 3 w15 - w19 - b + 10000 z33 >= 1
 c35:  - 50 w0 - w1 - w5 - 144 w6 - 200 w7 - w11 - 126 w12 - w13 - 0.9 w14
       - 2 w15 - w19 - b + 10000 z34 >= 1
 c36:  - 48 w0 - w1 - w5 - 130 w6 - 256 w7 - w8 - w11 - 150 w12 - w13 - w15
       - 2 w16 - w19 - b + 10000 z35 >= 1
 c37:  - 61 w0 - w1 - w5 - 140 w6 - 207 w7 - w11 - 138 w12 - w13 - 1.9 w14
       - w15 - w16 - w19 - b + 10000 z36 >= 1
 c38:  - 59 w0 - w1 - w2 - 160 w6 - 273 w7 - w11 - 125 w12 - w15 - w17 - b
       + 10000 z37 >= 1
 c39:  42 w0 + w1 + w4 + 130 w6 + 180 w7 + w9 + 150 w12 + w15 + w17 + b
       + 10000 z38 >= 1
 c40:  48 w0 + w1 + w5 + 122 w6 + 222 w7 + w11 + 186 w12 + w15 + w17 + b
       + 10000 z39 >= 1
 c41:  - 40 w0 - w1 - w5 - 152 w6 - 223 w7 - w9 - 181 w12 - w15 - w19 - b
       + 10000 z40 >= 1
 c42:  62 w0 + w5 + 124 w6 + 209 w7 + w9 + 163 w12 + w15 + w17 + b + 10000 z41
       >= 1
 c43:  44 w0 + w1 + w4 + 130 w6 + 233 w7 + w9 + 179 w12 + w13 + 0.4 w14 + w15
       + w17 + b + 10000 z42 >= 1
 c44:  46 w0 + w1 + w3 + 101 w6 + 197 w7 + w8 + w9 + 156 w12 + w15 + w19 + b
       + 10000 z43 >= 1
 c45:  - 59 w0 - w1 - w4 - 126 w6 - 218 w7 - w8 - w9 - 134 w12 - 2.2 w14
       - 2 w15 - w16 - w18 - b + 10000 z44 >= 1
 c46:  58 w0 + w1 + w4 + 140 w6 + 211 w7 + w8 + w11 + 165 w12 + w15 + w17 + b
       + 10000 z45 >= 1
 c47:  - 49 w0 - w1 - w4 - 118 w6 - 149 w7 - w11 - 126 w12 - 0.8 w14 - w15
       - 3 w16 - w17 - b + 10000 z46 >= 1
 c48:  - 44 w0 - w1 - w5 - 110 w6 - 197 w7 - w11 - 177 w12 - w15 - w16 - w17
       - b + 10000 z47 >= 1
 c49:  - 66 w0 - w1 - w3 - 160 w6 - 246 w7 - w9 - 120 w12 - w13 - 2 w15 - 3 w16
       - w18 - b + 10000 z48 >= 1
 c50:  - 65 w0 - w5 - 150 w6 - 225 w7 - w11 - 114 w12 - w14 - 2 w15 - 3 w16
       - w19 - b + 10000 z49 >= 1
 c51:  - 42 w0 - w1 - w5 - 136 w6 - 315 w7 - w9 - 125 w12 - w13 - 1.8 w14
       - 2 w15 - w18 - b + 10000 z50 >= 1
 c52:  52 w0 + w1 + w3 + 128 w6 + 205 w7 + w8 + w9 + 184 w12 + w15 + w17 + b
       + 10000 z51 >= 1
 c53:  65 w0 + w4 + 140 w6 + 417 w7 + w8 + w11 + 157 w12 + 0.8 w14 + w15 + w16
       + w17 + b + 10000 z52 >= 1
 c54:  63 w0 + w3 + 140 w6 + 195 w7 + w9 + 179 w12 + w15 + 2 w16 + w17 + b
       + 10000 z53 >= 1
 c55:  45 w0 + w3 + 130 w6 + 234 w7 + w11 + 175 w12 + 0.6 w14 + 2 w15 + w17 + b
       + 10000 z54 >= 1
 c56:  41 w0 + w3 + 105 w6 + 198 w7 + w9 + 168 w12 + w15 + w16 + w17 + b
       + 10000 z55 >= 1
 c57:  - 61 w0 - w1 - w5 - 138 w6 - 166 w7 - w11 - 125 w12 - w13 - 3.6 w14
       - 2 w15 - w16 - w17 - b + 10000 z56 >= 1
 c58:  60 w0 + w4 + 120 w6 + 178 w7 + w8 + w9 + 96 w12 + w15 + w17 + b
       + 10000 z57 >= 1
 c59:  - 59 w0 - w5 - 174 w6 - 249 w7 - w9 - 143 w12 - w13 - 2 w15 - w17 - b
       + 10000 z58 >= 1
 c60:  - 62 w0 - w1 - w3 - 120 w6 - 281 w7 - w11 - 103 w12 - 1.4 w14 - 2 w15
       - w16 - w19 - b + 10000 z59 >= 1
 c61:  57 w0 + w1 + w4 + 150 w6 + 126 w7 + w8 + w9 + 173 w12 + 0.2 w14 + w15
       + w16 + w19 + b + 10000 z60 >= 1
 c62:  - 51 w0 - w5 - 130 w6 - 305 w7 - w9 - 142 w12 - w13 - 1.2 w14 - 2 w15
       - w19 - b + 10000 z61 >= 1
 c63:  44 w0 + w1 + w4 + 120 w6 + 226 w7 + w9 + 169 w12 + w15 + w17 + b
       + 10000 z62 >= 1
 c64:  60 w0 + w2 + 150 w6 + 240 w7 + w9 + 171 w12 + 0.9 w14 + w15 + w17 + b
       + 10000 z63 >= 1
 c65:  63 w0 + w1 + w2 + 145 w6 + 233 w7 + w8 + w11 + 150 w12 + 2.3 w14 + 3 w15
       + w18 + b + 10000 z64 >= 1
 c66:  - 57 w0 - w1 - w5 - 150 w6 - 276 w7 - w11 - 112 w12 - w13 - 0.6 w14
       - 2 w15 - w16 - w18 - b + 10000 z65 >= 1
 c67:  51 w0 + w1 + w5 + 140 w6 + 261 w7 + w11 + 186 w12 + w13 + w15 + w17 + b
       + 10000 z66 >= 1
 c68:  - 58 w0 - w3 - 136 w6 - 319 w7 - w8 - w11 - 152 w12 - w15 - 2 w16 - w17
       - b + 10000 z67 >= 1
 c69:  44 w0 + w4 + 118 w6 + 242 w7 + w9 + 149 w12 + 0.3 w14 + 2 w15 + w16
       + w17 + b + 10000 z68 >= 1
 c70:  - 47 w0 - w1 - w4 - 108 w6 - 243 w7 - w9 - 152 w12 - w15 - w17 - b
       + 10000 z69 >= 1
 c71:  - 61 w0 - w1 - w5 - 120 w6 - 260 w7 - w9 - 140 w12 - w13 - 3.6 w14
       - 2 w15 - w16 - w19 - b + 10000 z70 >= 1
 c72:  57 w0 + w5 + 120 w6 + 354 w7 + w9 + 163 w12 + w13 + 0.6 w14 + w15 + w17
       + b + 10000 z71 >= 1
 c73:  70 w0 + w1 + w3 + 156 w6 + 245 w7 + w11 + 143 w12 + w15 + w17 + b
       + 10000 z72 >= 1
 c74:  76 w0 + w4 + 140 w6 + 197 w7 + w10 + 116 w12 + 1.1 w14 + 2 w15 + w17 + b
       + 10000 z73 >= 1
 c75:  67 w0 + w5 + 106 w6 + 223 w7 + w9 + 142 w12 + 0.3 w14 + w15 + 2 w16
       + w17 + b + 10000 z74 >= 1
 c76:  - 45 w0 - w1 - w5 - 142 w6 - 309 w7 - w11 - 147 w12 - w13 - 2 w15
       - 3 w16 - w19 - b + 10000 z75 >= 1
 c77:  45 w0 + w1 + w5 + 104 w6 + 208 w7 + w11 + 148 w12 + w13 + 3 w14 + 2 w15
       + w17 + b + 10000 z76 >= 1
 c78:  39 w0 + w4 + 94 w6 + 199 w7 + w9 + 179 w12 + w15 + w17 + b + 10000 z77
       >= 1
 c79:  42 w0 + w4 + 120 w6 + 209 w7 + w9 + 173 w12 + 2 w15 + w17 + b
       + 10000 z78 >= 1
 c80:  56 w0 + w1 + w3 + 120 w6 + 236 w7 + w9 + 178 w12 + 0.8 w14 + w15 + w17
       + b + 10000 z79 >= 1
 c81:  - 58 w0 - w1 - w5 - 146 w6 - 218 w7 - w9 - 105 w12 - 2 w14 - 2 w15 - w16
       - w19 - b + 10000 z80 >= 1
 c82:  - 35 w0 - w1 - w5 - 120 w6 - 198 w7 - w9 - 130 w12 - w13 - 1.6 w14
       - 2 w15 - w19 - b + 10000 z81 >= 1
 c83:  - 58 w0 - w1 - w5 - 150 w6 - 270 w7 - w11 - 111 w12 - w13 - 0.8 w14
       - w15 - w19 - b + 10000 z82 >= 1
 c84:  41 w0 + w1 + w4 + 130 w6 + 214 w7 + w11 + 168 w12 + 2 w14 + 2 w15 + w17
       + b + 10000 z83 >= 1
 c85:  57 w0 + w1 + w5 + 110 w6 + 201 w7 + w9 + 126 w12 + w13 + 1.5 w14 + 2 w15
       + w18 + b + 10000 z84 >= 1
 c86:  42 w0 + w1 + w2 + 148 w6 + 244 w7 + w11 + 178 w12 + 0.8 w14 + w15
       + 2 w16 + w17 + b + 10000 z85 >= 1
 c87:  62 w0 + w1 + w3 + 128 w6 + 208 w7 + w8 + w11 + 140 w12 + w15 + w17 + b
       + 10000 z86 >= 1
 c88:  59 w0 + w1 + w2 + 178 w6 + 270 w7 + w11 + 145 w12 + 4.2 w14 + 3 w15
       + w19 + b + 10000 z87 >= 1
 c89:  41 w0 + w3 + 126 w6 + 306 w7 + w9 + 163 w12 + w15 + w17 + b + 10000 z88
       >= 1
 c90:  - 50 w0 - w1 - w5 - 150 w6 - 243 w7 - w11 - 128 w12 - 2.6 w14 - 2 w15
       - w19 - b + 10000 z89 >= 1
 c91:  59 w0 + w1 + w3 + 140 w6 + 221 w7 + w9 + 164 w12 + w13 + w15 + w17 + b
       + 10000 z90 >= 1
 c92:  - 61 w0 - w5 - 130 w6 - 330 w7 - w11 - 169 w12 - w15 - w17 - b
       + 10000 z91 >= 1
 c93:  - 54 w0 - w1 - w5 - 124 w6 - 266 w7 - w11 - 109 w12 - w13 - 2.2 w14
       - 2 w15 - w16 - w19 - b + 10000 z92 >= 1
 c94:  - 54 w0 - w1 - w5 - 110 w6 - 206 w7 - w11 - 108 w12 - w13 - 2 w15 - w16
       - w17 - b + 10000 z93 >= 1
 c95:  - 52 w0 - w1 - w5 - 125 w6 - 212 w7 - w9 - 168 w12 - w14 - w15 - 2 w16
       - w19 - b + 10000 z94 >= 1
 c96:  - 47 w0 - w1 - w5 - 110 w6 - 275 w7 - w11 - 118 w12 - w13 - w14 - 2 w15
       - w16 - w17 - b + 10000 z95 >= 1
 c97:  66 w0 + w1 + w5 + 120 w6 + 302 w7 + w11 + 151 w12 + 0.4 w14 + 2 w15
       + w17 + b + 10000 z96 >= 1
 c98:  - 58 w0 - w1 - w5 - 100 w6 - 234 w7 - w9 - 156 w12 - 0.1 w14 - w15 - w16
       - w19 - b + 10000 z97 >= 1
 c99:  64 w0 + w4 + 140 w6 + 313 w7 + w9 + 133 w12 + 0.2 w14 + w15 + w19 + b
       + 10000 z98 >= 1
 c100: 50 w0 + w3 + 120 w6 + 244 w7 + w9 + 162 w12 + 1.1 w14 + w15 + w17 + b
       + 10000 z99 >= 1
 c101: 44 w0 + w4 + 108 w6 + 141 w7 + w9 + 175 w12 + 0.6 w14 + 2 w15 + w17 + b
       + 10000 z100 >= 1
 c102: - 67 w0 - w1 - w5 - 120 w6 - 237 w7 - w9 - 71 w12 - w14 - 2 w15 - w17
       - b + 10000 z101 >= 1
 c103: 49 w0 + w5 + 130 w6 + 269 w7 + w9 + 163 w12 + w15 + w17 + b + 10000 z102
       >= 1
 c104: - 57 w0 - w1 - w5 - 165 w6 - 289 w7 - w8 - w11 - 124 w12 - w14 - 2 w15
       - 3 w16 - w19 - b + 10000 z103 >= 1
 c105: - 63 w0 - w1 - w5 - 130 w6 - 254 w7 - w11 - 147 w12 - 1.4 w14 - 2 w15
       - w16 - w19 - b + 10000 z104 >= 1
 c106: - 48 w0 - w1 - w5 - 124 w6 - 274 w7 - w11 - 166 w12 - 0.5 w14 - 2 w15
       - w19 - b + 10000 z105 >= 1
 c107: 51 w0 + w1 + w4 + 100 w6 + 222 w7 + w9 + 143 w12 + w13 + 1.2 w14 + 2 w15
       + w17 + b + 10000 z106 >= 1
 c108: - 60 w0 - w5 - 150 w6 - 258 w7 - w11 - 157 w12 - 2.6 w14 - 2 w15 - 2 w16
       - w19 - b + 10000 z107 >= 1
 c109: - 59 w0 - w1 - w5 - 140 w6 - 177 w7 - w9 - 162 w12 - w13 - w15 - w16
       - w19 - b + 10000 z108 >= 1
 c110: 45 w0 + w3 + 112 w6 + 160 w7 + w9 + 138 w12 + 2 w15 + w17 + b
       + 10000 z109 >= 1
 c111: - 55 w0 - w5 - 180 w6 - 327 w7 - w10 - 117 w12 - w13 - 3.4 w14 - 2 w15
       - w17 - b + 10000 z110 >= 1
 c112: 41 w0 + w1 + w3 + 110 w6 + 235 w7 + w9 + 153 w12 + w15 + w17 + b
       + 10000 z111 >= 1
 c113: - 60 w0 - w5 - 158 w6 - 305 w7 - w11 - 161 w12 - w15 - w17 - b
       + 10000 z112 >= 1
 c114: 54 w0 + w4 + 135 w6 + 304 w7 + w8 + w9 + 170 w12 + w15 + w17 + b
       + 10000 z113 >= 1
 c115: 42 w0 + w1 + w3 + 120 w6 + 295 w7 + w9 + 162 w12 + w15 + w17 + b
       + 10000 z114 >= 1
 c116: 49 w0 + w3 + 134 w6 + 271 w7 + w9 + 162 w12 + 2 w15 + w17 + b
       + 10000 z115 >= 1
 c117: - 46 w0 - w1 - w5 - 120 w6 - 249 w7 - w11 - 144 w12 - 0.8 w14 - w15
       - w19 - b + 10000 z116 >= 1
 c118: - 56 w0 - w5 - 200 w6 - 288 w7 - w8 - w11 - 133 w12 - w13 - 4 w14
       - 3 w15 - 2 w16 - w19 - b + 10000 z117 >= 1
 c119: 66 w0 + w2 + 150 w6 + 226 w7 + w9 + 114 w12 + 2.6 w14 + 3 w15 + w17 + b
       + 10000 z118 >= 1
 c120: - 56 w0 - w1 - w5 - 130 w6 - 283 w7 - w8 - w11 - 103 w12 - w13 - 1.6 w14
       - 3 w15 - w19 - b + 10000 z119 >= 1
 c121: - 49 w0 - w1 - w4 - 120 w6 - 188 w7 - w9 - 139 w12 - 2 w14 - 2 w15
       - 3 w16 - w19 - b + 10000 z120 >= 1
 c122: - 54 w0 - w1 - w5 - 122 w6 - 286 w7 - w11 - 116 w12 - w13 - 3.2 w14
       - 2 w15 - 2 w16 - w17 - b + 10000 z121 >= 1
 c123: - 57 w0 - w1 - w5 - 152 w6 - 274 w7 - w9 - 88 w12 - w13 - 1.2 w14
       - 2 w15 - w16 - w19 - b + 10000 z122 >= 1
 c124: 65 w0 + w4 + 160 w6 + 360 w7 + w11 + 151 w12 + 0.8 w14 + w15 + w17 + b
       + 10000 z123 >= 1
 c125: 54 w0 + w1 + w4 + 125 w6 + 273 w7 + w11 + 152 w12 + 0.5 w14 + 3 w15
       + w16 + w17 + b + 10000 z124 >= 1
 c126: 54 w0 + w4 + 160 w6 + 201 w7 + w9 + 163 w12 + w15 + w16 + w17 + b
       + 10000 z125 >= 1
 c127: - 62 w0 - w1 - w5 - 120 w6 - 267 w7 - w9 - 99 w12 - w13 - 1.8 w14
       - 2 w15 - 2 w16 - w19 - b + 10000 z126 >= 1
 c128: 52 w0 + w4 + 136 w6 + 196 w7 + w11 + 169 w12 + 0.1 w14 + 2 w15 + w17 + b
       + 10000 z127 >= 1
 c129: 52 w0 + w1 + w3 + 134 w6 + 201 w7 + w9 + 158 w12 + 0.8 w14 + w15 + w16
       + w17 + b + 10000 z128 >= 1
 c130: - 60 w0 - w1 - w5 - 117 w6 - 230 w7 - w8 - w9 - 160 w12 - w13 - 1.4 w14
       - w15 - 2 w16 - w19 - b + 10000 z129 >= 1
 c131: - 63 w0 - w5 - 108 w6 - 269 w7 - w9 - 169 w12 - w13 - 1.8 w14 - 2 w15
       - 2 w16 - w17 - b + 10000 z130 >= 1
 c132: - 66 w0 - w1 - w5 - 112 w6 - 212 w7 - w11 - 132 w12 - w13 - 0.1 w14
       - w15 - w16 - w17 - b + 10000 z131 >= 1
 c133: 42 w0 + w1 + w5 + 140 w6 + 226 w7 + w9 + 178 w12 + w15 + w17 + b
       + 10000 z132 >= 1
 c134: - 64 w0 - w1 - w5 - 120 w6 - 246 w7 - w11 - 96 w12 - w13 - 2.2 w14
       - 3 w15 - w16 - w17 - b + 10000 z133 >= 1
 c135: 54 w0 + w1 + w4 + 150 w6 + 232 w7 + w11 + 165 w12 + 1.6 w14 + w15 + w19
       + b + 10000 z134 >= 1
 c136: 46 w0 + w4 + 142 w6 + 177 w7 + w11 + 160 w12 + w13 + 1.4 w14 + 3 w15
       + w17 + b + 10000 z135 >= 1
 c137: 67 w0 + w4 + 152 w6 + 277 w7 + w9 + 172 w12 + w15 + w16 + w17 + b
       + 10000 z136 >= 1
 c138: - 56 w0 - w1 - w5 - 125 w6 - 249 w7 - w8 - w11 - 144 w12 - w13 - 1.2 w14
       - 2 w15 - w16 - w17 - b + 10000 z137 >= 1
 c139: 34 w0 + w3 + 118 w6 + 210 w7 + w9 + 192 w12 + 0.7 w14 + w15 + w17 + b
       + 10000 z138 >= 1
 c140: 57 w0 + w1 + w5 + 132 w6 + 207 w7 + w9 + 168 w12 + w13 + w15 + w19 + b
       + 10000 z139 >= 1
 c141: - 64 w0 - w1 - w5 - 145 w6 - 212 w7 - w11 - 132 w12 - 2 w14 - 2 w15
       - 2 w16 - w18 - b + 10000 z140 >= 1
 c142: 59 w0 + w1 + w5 + 138 w6 + 271 w7 + w11 + 182 w12 + w15 + w17 + b
       + 10000 z141 >= 1
 c143: - 50 w0 - w1 - w4 - 140 w6 - 233 w7 - w9 - 163 w12 - 0.6 w14 - 2 w15
       - w16 - w19 - b + 10000 z142 >= 1
 c144: 51 w0 + w1 + w2 + 125 w6 + 213 w7 + w11 + 125 w12 + w13 + 1.4 w14 + w15
       + w16 + w17 + b + 10000 z143 >= 1
 c145: - 54 w0 - w1 - w3 - 192 w6 - 283 w7 - w11 - 195 w12 - w15 - w16 - w19
       - b + 10000 z144 >= 1
 c146: - 53 w0 - w1 - w5 - 123 w6 - 282 w7 - w9 - 95 w12 - w13 - 2 w14 - 2 w15
       - 2 w16 - w19 - b + 10000 z145 >= 1
 c147: - 52 w0 - w1 - w5 - 112 w6 - 230 w7 - w9 - 160 w12 - w15 - w16 - w17 - b
       + 10000 z146 >= 1
 c148: - 40 w0 - w1 - w5 - 110 w6 - 167 w7 - w11 - 114 w12 - w13 - 2 w14
       - 2 w15 - w19 - b + 10000 z147 >= 1
 c149: - 58 w0 - w1 - w4 - 132 w6 - 224 w7 - w11 - 173 w12 - 3.2 w14 - w15
       - 2 w16 - w19 - b + 10000 z148 >= 1
 c150: 41 w0 + w4 + 112 w6 + 268 w7 + w11 + 172 w12 + w13 + w15 + w17 + b
       + 10000 z149 >= 1
 c151: 41 w0 + w1 + w4 + 112 w6 + 250 w7 + w9 + 179 w12 + w15 + w17 + b
       + 10000 z150 >= 1
 c152: 50 w0 + w4 + 120 w6 + 219 w7 + w9 + 158 w12 + 1.6 w14 + 2 w15 + w17 + b
       + 10000 z151 >= 1
 c153: 54 w0 + w4 + 108 w6 + 267 w7 + w11 + 167 w12 + w15 + w17 + b
       + 10000 z152 >= 1
 c154: 64 w0 + w5 + 130 w6 + 303 w7 + w9 + 122 w12 + 2 w14 + 2 w15 + 2 w16
       + w17 + b + 10000 z153 >= 1
 c155: 51 w0 + w4 + 130 w6 + 256 w7 + w11 + 149 w12 + 0.5 w14 + w15 + w17 + b
       + 10000 z154 >= 1
 c156: 46 w0 + w3 + 105 w6 + 204 w7 + w9 + 172 w12 + w15 + w17 + b + 10000 z155
       >= 1
 c157: - 55 w0 - w1 - w5 - 140 w6 - 217 w7 - w9 - 111 w12 - w13 - 5.6 w14
       - 3 w15 - w19 - b + 10000 z156 >= 1
 c158: 45 w0 + w1 + w3 + 128 w6 + 308 w7 + w11 + 170 w12 + w15 + w17 + b
       + 10000 z157 >= 1
 c159: 56 w0 + w1 + w2 + 120 w6 + 193 w7 + w11 + 162 w12 + 1.9 w14 + 2 w15
       + w19 + b + 10000 z158 >= 1
 c160: - 66 w0 - w5 - 178 w6 - 228 w7 - w8 - w9 - 165 w12 - w13 - w14 - 2 w15
       - 2 w16 - w19 - b + 10000 z159 >= 1
 c161: - 38 w0 - w1 - w2 - 120 w6 - 231 w7 - w9 - 182 w12 - w13 - 3.8 w14
       - 2 w15 - w19 - b + 10000 z160 >= 1
 c162: - 62 w0 - w5 - 150 w6 - 244 w7 - w9 - 154 w12 - w13 - 1.4 w14 - 2 w15
       - w17 - b + 10000 z161 >= 1
 c163: 55 w0 + w1 + w3 + 130 w6 + 262 w7 + w9 + 155 w12 + w15 + w17 + b
       + 10000 z162 >= 1
 c164: - 58 w0 - w1 - w5 - 128 w6 - 259 w7 - w11 - 130 w12 - w13 - 3 w14
       - 2 w15 - 2 w16 - w19 - b + 10000 z163 >= 1
 c165: 43 w0 + w1 + w5 + 110 w6 + 211 w7 + w9 + 161 w12 + w15 + w19 + b
       + 10000 z164 >= 1
 c166: 64 w0 + w5 + 180 w6 + 325 w7 + w9 + 154 w12 + w13 + w15 + w17 + b
       + 10000 z165 >= 1
 c167: 50 w0 + w5 + 110 w6 + 254 w7 + w11 + 159 w12 + w15 + w17 + b
       + 10000 z166 >= 1
 c168: 53 w0 + w1 + w4 + 130 w6 + 197 w7 + w8 + w11 + 152 w12 + 1.2 w14 + 3 w15
       + w17 + b + 10000 z167 >= 1
 c169: 45 w0 + w5 + 138 w6 + 236 w7 + w11 + 152 w12 + w13 + 0.2 w14 + 2 w15
       + w17 + b + 10000 z168 >= 1
 c170: - 65 w0 - w1 - w2 - 138 w6 - 282 w7 - w8 - w11 - 174 w12 - 1.4 w14
       - 2 w15 - w16 - w17 - b + 10000 z169 >= 1
 c171: 69 w0 + w1 + w2 + 160 w6 + 234 w7 + w8 + w11 + 131 w12 + 0.1 w14 + 2 w15
       + w16 + w17 + b + 10000 z170 >= 1
 c172: - 69 w0 - w1 - w4 - 140 w6 - 254 w7 - w11 - 146 w12 - 2 w14 - 2 w15
       - 3 w16 - w19 - b + 10000 z171 >= 1
 c173: - 67 w0 - w1 - w5 - 100 w6 - 299 w7 - w11 - 125 w12 - w13 - 0.9 w14
       - 2 w15 - 2 w16 - w17 - b + 10000 z172 >= 1
 c174: 68 w0 + w4 + 120 w6 + 211 w7 + w11 + 115 w12 + 1.5 w14 + 2 w15 + w17 + b
       + 10000 z173 >= 1
 c175: 34 w0 + w1 + w2 + 118 w6 + 182 w7 + w11 + 174 w12 + w15 + w17 + b
       + 10000 z174 >= 1
 c176: - 62 w0 - w5 - 138 w6 - 294 w7 - w8 - w9 - 106 w12 - 1.9 w14 - 2 w15
       - 3 w16 - w17 - b + 10000 z175 >= 1
 c177: - 51 w0 - w1 - w5 - 140 w6 - 298 w7 - w9 - 122 w12 - w13 - 4.2 w14
       - 2 w15 - 3 w16 - w19 - b + 10000 z176 >= 1
 c178: - 46 w0 - w1 - w4 - 150 w6 - 231 w7 - w9 - 147 w12 - 3.6 w14 - 2 w15
       - w17 - b + 10000 z177 >= 1
 c179: - 67 w0 - w1 - w5 - 125 w6 - 254 w7 - w8 - w9 - 163 w12 - 0.2 w14
       - 2 w15 - 2 w16 - w19 - b + 10000 z178 >= 1
 c180: 50 w0 + w1 + w4 + 129 w6 + 196 w7 + w9 + 163 w12 + w15 + w17 + b
       + 10000 z179 >= 1
 c181: 42 w0 + w1 + w4 + 120 w6 + 240 w7 + w8 + w9 + 194 w12 + 0.8 w14 + 3 w15
       + w19 + b + 10000 z180 >= 1
 c182: - 56 w0 - w5 - 134 w6 - 409 w7 - w11 - 150 w12 - w13 - 1.9 w14 - 2 w15
       - 2 w16 - w19 - b + 10000 z181 >= 1
 c183: - 41 w0 - w1 - w5 - 110 w6 - 172 w7 - w11 - 158 w12 - w15 - w19 - b
       + 10000 z182 >= 1
 c184: 42 w0 + w5 + 102 w6 + 265 w7 + w11 + 122 w12 + 0.6 w14 + 2 w15 + w17 + b
       + 10000 z183 >= 1
 c185: 53 w0 + w1 + w4 + 130 w6 + 246 w7 + w8 + w11 + 173 w12 + w15 + 3 w16
       + w17 + b + 10000 z184 >= 1
 c186: 43 w0 + w1 + w4 + 130 w6 + 315 w7 + w9 + 162 w12 + 1.9 w14 + w15 + w16
       + w17 + b + 10000 z185 >= 1
 c187: - 56 w0 - w1 - w5 - 132 w6 - 184 w7 - w11 - 105 w12 - w13 - 2.1 w14
       - 2 w15 - w16 - w18 - b + 10000 z186 >= 1
 c188: 52 w0 + w1 + w5 + 108 w6 + 233 w7 + w8 + w9 + 147 w12 + 0.1 w14 + w15
       + 3 w16 + w19 + b + 10000 z187 >= 1
 c189: 62 w0 + w5 + 140 w6 + 394 w7 + w11 + 157 w12 + 1.2 w14 + 2 w15 + w17 + b
       + 10000 z188 >= 1
 c190: - 70 w0 - w1 - w4 - 160 w6 - 269 w7 - w9 - 112 w12 - w13 - 2.9 w14
       - 2 w15 - w16 - w19 - b + 10000 z189 >= 1
 c191: 54 w0 + w1 + w5 + 140 w6 + 239 w7 + w9 + 160 w12 + 1.2 w14 + w15 + w17
       + b + 10000 z190 >= 1
 c192: - 70 w0 - w1 - w5 - 145 w6 - 174 w7 - w9 - 125 w12 - w13 - 2.6 w14
       - 3 w15 - w19 - b + 10000 z191 >= 1
 c193: 54 w0 + w1 + w3 + 108 w6 + 309 w7 + w9 + 156 w12 + w15 + w19 + b
       + 10000 z192 >= 1
 c194: - 35 w0 - w1 - w5 - 126 w6 - 282 w7 - w11 - 156 w12 - w13 - w15 - w19
       - b + 10000 z193 >= 1
 c195: 48 w0 + w1 + w4 + 124 w6 + 255 w7 + w8 + w9 + 175 w12 + w15 + 2 w16
       + w17 + b + 10000 z194 >= 1
 c196: 55 w0 + w3 + 135 w6 + 250 w7 + w11 + 161 w12 + 1.4 w14 + 2 w15 + w17 + b
       + 10000 z195 >= 1
 c197: 58 w0 + w5 + 100 w6 + 248 w7 + w11 + 122 w12 + w14 + 2 w15 + w17 + b
       + 10000 z196 >= 1
 c198: 54 w0 + w4 + 110 w6 + 214 w7 + w9 + 158 w12 + 1.6 w14 + 2 w15 + w17 + b
       + 10000 z197 >= 1
 c199: 69 w0 + w2 + 140 w6 + 239 w7 + w9 + 151 w12 + 1.8 w14 + w15 + 2 w16
       + w17 + b + 10000 z198 >= 1
 c200: - 77 w0 - w1 - w5 - 125 w6 - 304 w7 - w11 - 162 w12 - w13 - w15 - 3 w16
       - w17 - b + 10000 z199 >= 1
 c201: 68 w0 + w1 + w4 + 118 w6 + 277 w7 + w9 + 151 w12 + w14 + w15 + w16 + w19
       + b + 10000 z200 >= 1
 c202: - 58 w0 - w1 - w5 - 125 w6 - 300 w7 - w11 - 171 w12 - w15 - 2 w16 - w19
       - b + 10000 z201 >= 1
 c203: - 60 w0 - w1 - w5 - 125 w6 - 258 w7 - w11 - 141 w12 - w13 - 2.8 w14
       - 2 w15 - w16 - w19 - b + 10000 z202 >= 1
 c204: - 51 w0 - w1 - w5 - 140 w6 - 299 w7 - w9 - 173 w12 - w13 - 1.6 w14 - w15
       - w19 - b + 10000 z203 >= 1
 c205: - 55 w0 - w1 - w5 - 160 w6 - 289 w7 - w11 - 145 w12 - w13 - 0.8 w14
       - 2 w15 - w16 - w19 - b + 10000 z204 >= 1
 c206: 52 w0 + w1 + w2 + 152 w6 + 298 w7 + w8 + w9 + 178 w12 + 1.2 w14 + 2 w15
       + w19 + b + 10000 z205 >= 1
 c207: 60 w0 + w4 + 102 w6 + 318 w7 + w9 + 160 w12 + w15 + w16 + w17 + b
       + 10000 z206 >= 1
 c208: 58 w0 + w1 + w4 + 105 w6 + 240 w7 + w11 + 154 w12 + w13 + 0.6 w14
       + 2 w15 + w19 + b + 10000 z207 >= 1
 c209: - 64 w0 - w1 - w4 - 125 w6 - 309 w7 - w9 - 131 w12 - w13 - 1.8 w14
       - 2 w15 - w19 - b + 10000 z208 >= 1
 c210: 37 w0 + w1 + w4 + 130 w6 + 250 w7 + w9 + 187 w12 + 3.5 w14 + 3 w15 + w17
       + b + 10000 z209 >= 1
 c211: - 59 w0 - w1 - w2 - 170 w6 - 288 w7 - w11 - 159 w12 - 0.2 w14 - 2 w15
       - w19 - b + 10000 z210 >= 1
 c212: 51 w0 + w1 + w4 + 125 w6 + 245 w7 + w8 + w11 + 166 w12 + 2.4 w14 + 2 w15
       + w17 + b + 10000 z211 >= 1
 c213: 43 w0 + w4 + 122 w6 + 213 w7 + w9 + 165 w12 + 0.2 w14 + 2 w15 + w17 + b
       + 10000 z212 >= 1
 c214: - 58 w0 - w1 - w5 - 128 w6 - 216 w7 - w11 - 131 w12 - w13 - 2.2 w14
       - 2 w15 - 3 w16 - w19 - b + 10000 z213 >= 1
 c215: 29 w0 + w1 + w3 + 130 w6 + 204 w7 + w11 + 202 w12 + w15 + w17 + b
       + 10000 z214 >= 1
 c216: 41 w0 + w3 + 130 w6 + 204 w7 + w11 + 172 w12 + 1.4 w14 + w15 + w17 + b
       + 10000 z215 >= 1
 c217: 63 w0 + w4 + 135 w6 + 252 w7 + w11 + 172 w12 + w15 + w17 + b
       + 10000 z216 >= 1
 c218: 51 w0 + w1 + w4 + 94 w6 + 227 w7 + w9 + 154 w12 + w13 + w15 + w16 + w19
       + b + 10000 z217 >= 1
 c219: 54 w0 + w1 + w4 + 120 w6 + 258 w7 + w11 + 147 w12 + 0.4 w14 + 2 w15
       + w19 + b + 10000 z218 >= 1
 c220: 44 w0 + w1 + w3 + 120 w6 + 220 w7 + w9 + 170 w12 + w15 + w17 + b
       + 10000 z219 >= 1
 c221: - 54 w0 - w1 - w5 - 110 w6 - 239 w7 - w9 - 126 w12 - w13 - 2.8 w14
       - 2 w15 - w16 - w19 - b + 10000 z220 >= 1
 c222: - 65 w0 - w1 - w5 - 135 w6 - 254 w7 - w11 - 127 w12 - 2.8 w14 - 2 w15
       - w16 - w19 - b + 10000 z221 >= 1
 c223: 57 w0 + w1 + w4 + 150 w6 + 168 w7 + w9 + 174 w12 + 1.6 w14 + w15 + w17
       + b + 10000 z222 >= 1
 c224: - 63 w0 - w1 - w5 - 130 w6 - 330 w7 - w8 - w11 - 132 w12 - w13 - 1.8 w14
       - w15 - 3 w16 - w19 - b + 10000 z223 >= 1
 c225: 35 w0 + w5 + 138 w6 + 183 w7 + w9 + 182 w12 + 1.4 w14 + w15 + w17 + b
       + 10000 z224 >= 1
 c226: 41 w0 + w1 + w3 + 135 w6 + 203 w7 + w9 + 132 w12 + 2 w15 + w18 + b
       + 10000 z225 >= 1
 c227: - 62 w0 - w4 - 130 w6 - 263 w7 - w9 - 97 w12 - 1.2 w14 - 2 w15 - w16
       - w19 - b + 10000 z226 >= 1
 c228: - 43 w0 - w5 - 132 w6 - 341 w7 - w8 - w11 - 136 w12 - w13 - 3 w14
       - 2 w15 - w19 - b + 10000 z227 >= 1
 c229: 58 w0 + w2 + 150 w6 + 283 w7 + w8 + w11 + 162 w12 + w14 + w15 + w17 + b
       + 10000 z228 >= 1
 c230: 52 w0 + w1 + w2 + 118 w6 + 186 w7 + w11 + 190 w12 + 2 w15 + w18 + b
       + 10000 z229 >= 1
 c231: - 61 w0 - w5 - 145 w6 - 307 w7 - w11 - 146 w12 - w13 - w14 - 2 w15 - w19
       - b + 10000 z230 >= 1
 c232: - 39 w0 - w1 - w5 - 118 w6 - 219 w7 - w9 - 140 w12 - 1.2 w14 - 2 w15
       - w19 - b + 10000 z231 >= 1
 c233: 45 w0 + w1 + w5 + 115 w6 + 260 w7 + w11 + 185 w12 + w15 + w17 + b
       + 10000 z232 >= 1
 c234: - 52 w0 - w1 - w5 - 128 w6 - 255 w7 - w9 - 161 w12 - w13 - w15 - w16
       - w19 - b + 10000 z233 >= 1
 c235: 62 w0 + w1 + w4 + 130 w6 + 231 w7 + w9 + 146 w12 + 1.8 w14 + 2 w15
       + 3 w16 + w19 + b + 10000 z234 >= 1
 c236: - 62 w0 - w5 - 160 w6 - 164 w7 - w11 - 145 w12 - 6.2 w14 - 3 w15 - 3 w16
       - w19 - b + 10000 z235 >= 1
 c237: 53 w0 + w5 + 138 w6 + 234 w7 + w11 + 160 w12 + w15 + w17 + b
       + 10000 z236 >= 1
 c238: - 43 w0 - w1 - w5 - 120 w6 - 177 w7 - w11 - 120 w12 - w13 - 2.5 w14
       - 2 w15 - w19 - b + 10000 z237 >= 1
 c239: 47 w0 + w1 + w4 + 138 w6 + 257 w7 + w11 + 156 w12 + w15 + w17 + b
       + 10000 z238 >= 1
 c240: 52 w0 + w1 + w3 + 120 w6 + 325 w7 + w9 + 172 w12 + 0.2 w14 + w15 + w17
       + b + 10000 z239 >= 1
 c241: - 68 w0 - w1 - w4 - 180 w6 - 274 w7 - w8 - w11 - 150 w12 - w13 - 1.6 w14
       - 2 w15 - w19 - b + 10000 z240 >= 1
 c242: 39 w0 + w1 + w4 + 140 w6 + 321 w7 + w11 + 182 w12 + w15 + w17 + b
       + 10000 z241 >= 1
 c243: 53 w0 + w5 + 130 w6 + 264 w7 + w11 + 143 w12 + 0.4 w14 + 2 w15 + w17 + b
       + 10000 z242 >= 1
 c244: - 62 w0 - w5 - 140 w6 - 268 w7 - w11 - 160 w12 - 3.6 w14 - 3 w15 - 2 w16
       - w17 - b + 10000 z243 >= 1
 c245: 51 w0 + w4 + 140 w6 + 308 w7 + w11 + 142 w12 + 1.5 w14 + w15 + w16 + w17
       + b + 10000 z244 >= 1
 c246: - 60 w0 - w1 - w5 - 130 w6 - 253 w7 - w9 - 144 w12 - w13 - 1.4 w14 - w15
       - w16 - w19 - b + 10000 z245 >= 1
 c247: - 65 w0 - w1 - w5 - 110 w6 - 248 w7 - w11 - 158 w12 - 0.6 w14 - w15
       - 2 w16 - w18 - b + 10000 z246 >= 1
 c248: 65 w0 + w4 + 155 w6 + 269 w7 + w9 + 148 w12 + 0.8 w14 + w15 + w17 + b
       + 10000 z247 >= 1
 c249: - 60 w0 - w1 - w4 - 140 w6 - 185 w7 - w11 - 155 w12 - 3 w14 - 2 w15
       - w17 - b + 10000 z248 >= 1
 c250: - 60 w0 - w1 - w5 - 145 w6 - 282 w7 - w11 - 142 w12 - w13 - 2.8 w14
       - 2 w15 - 2 w16 - w19 - b + 10000 z249 >= 1
 c251: - 54 w0 - w1 - w5 - 120 w6 - 188 w7 - w9 - 113 w12 - 1.4 w14 - 2 w15
       - w16 - w19 - b + 10000 z250 >= 1
 c252: 44 w0 + w1 + w3 + 130 w6 + 219 w7 + w11 + 188 w12 + w15 + w17 + b
       + 10000 z251 >= 1
 c253: - 44 w0 - w1 - w5 - 112 w6 - 290 w7 - w11 - 153 w12 - w15 - w16 - w17
       - b + 10000 z252 >= 1
 c254: 51 w0 + w1 + w4 + 110 w6 + 175 w7 + w9 + 123 w12 + 0.6 w14 + w15 + w17
       + b + 10000 z253 >= 1
 c255: 59 w0 + w1 + w4 + 150 w6 + 212 w7 + w8 + w9 + 157 w12 + 1.6 w14 + w15
       + w17 + b + 10000 z254 >= 1
 c256: 71 w0 + w3 + 160 w6 + 302 w7 + w9 + 162 w12 + 0.4 w14 + w15 + 2 w16
       + w17 + b + 10000 z255 >= 1
 c257: 61 w0 + w1 + w4 + 150 w6 + 243 w7 + w8 + w9 + 137 w12 + w13 + w14
       + 2 w15 + w17 + b + 10000 z256 >= 1
 c258: - 55 w0 - w1 - w5 - 132 w6 - 353 w7 - w9 - 132 w12 - w13 - 1.2 w14
       - 2 w15 - w16 - w19 - b + 10000 z257 >= 1
 c259: - 64 w0 - w1 - w4 - 140 w6 - 335 w7 - w9 - 158 w12 - w15 - w17 - b
       + 10000 z258 >= 1
 c260: 43 w0 + w1 + w5 + 150 w6 + 247 w7 + w9 + 171 w12 + 1.5 w14 + w15 + w17
       + b + 10000 z259 >= 1
 c261: 58 w0 + w4 + 120 w6 + 340 w7 + w9 + 172 w12 + w15 + w17 + b + 10000 z260
       >= 1
 c262: - 60 w0 - w1 - w5 - 130 w6 - 206 w7 - w11 - 132 w12 - w13 - 2.4 w14
       - 2 w15 - 2 w16 - w19 - b + 10000 z261 >= 1
 c263: - 58 w0 - w1 - w3 - 120 w6 - 284 w7 - w11 - 160 w12 - 1.8 w14 - 2 w15
       - w17 - b + 10000 z262 >= 1
 c264: 49 w0 + w1 + w3 + 130 w6 + 266 w7 + w9 + 171 w12 + 0.6 w14 + w15 + w17
       + b + 10000 z263 >= 1
 c265: - 48 w0 - w1 - w3 - 110 w6 - 229 w7 - w9 - 168 w12 - w14 - 3 w15 - w19
       - b + 10000 z264 >= 1
 c266: 52 w0 + w1 + w4 + 172 w6 + 199 w7 + w8 + w9 + 162 w12 + 0.5 w14 + w15
       + w19 + b + 10000 z265 >= 1
 c267: 44 w0 + w1 + w3 + 120 w6 + 263 w7 + w9 + 173 w12 + w15 + w19 + b
       + 10000 z266 >= 1
 c268: 56 w0 + w3 + 140 w6 + 294 w7 + w11 + 153 w12 + 1.3 w14 + 2 w15 + w17 + b
       + 10000 z267 >= 1
 c269: 57 w0 + w1 + w5 + 140 w6 + 192 w7 + w9 + 148 w12 + 0.4 w14 + 2 w15 + w18
       + b + 10000 z268 >= 1
 c270: - 67 w0 - w1 - w5 - 160 w6 - 286 w7 - w11 - 108 w12 - w13 - 1.5 w14
       - 2 w15 - 3 w16 - w17 - b + 10000 z269 >= 1
Bounds
-1 <= b <= 1
 0 <= z0 <= 1
 0 <= z1 <= 1
 0 <= z2 <= 1
 0 <= z3 <= 1
 0 <= z4 <= 1
 0 <= z5 <= 1
 0 <= z6 <= 1
 0 <= z7 <= 1
 0 <= z8 <= 1
 0 <= z9 <= 1
 0 <= z10 <= 1
 0 <= z11 <= 1
 0 <= z12 <= 1
 0 <= z13 <= 1
 0 <= z14 <= 1
 0 <= z15 <= 1
 0 <= z16 <= 1
 0 <= z17 <= 1
 0 <= z18 <= 1
 0 <= z19 <= 1
 0 <= z20 <= 1
 0 <= z21 <= 1
 0 <= z22 <= 1
 0 <= z23 <= 1
 0 <= z24 <= 1
 0 <= z25 <= 1
 0 <= z26 <= 1
 0 <= z27 <= 1
 0 <= z28 <= 1
 0 <= z29 <= 1
 0 <= z30 <= 1
 0 <= z31 <= 1
 0 <= z32 <= 1
 0 <= z33 <= 1
 0 <= z34 <= 1
 0 <= z35 <= 1
 0 <= z36 <= 1
 0 <= z37 <= 1
 0 <= z38 <= 1
 0 <= z39 <= 1
 0 <= z40 <= 1
 0 <= z41 <= 1
 0 <= z42 <= 1
 0 <= z43 <= 1
 0 <= z44 <= 1
 0 <= z45 <= 1
 0 <= z46 <= 1
 0 <= z47 <= 1
 0 <= z48 <= 1
 0 <= z49 <= 1
 0 <= z50 <= 1
 0 <= z51 <= 1
 0 <= z52 <= 1
 0 <= z53 <= 1
 0 <= z54 <= 1
 0 <= z55 <= 1
 0 <= z56 <= 1
 0 <= z57 <= 1
 0 <= z58 <= 1
 0 <= z59 <= 1
 0 <= z60 <= 1
 0 <= z61 <= 1
 0 <= z62 <= 1
 0 <= z63 <= 1
 0 <= z64 <= 1
 0 <= z65 <= 1
 0 <= z66 <= 1
 0 <= z67 <= 1
 0 <= z68 <= 1
 0 <= z69 <= 1
 0 <= z70 <= 1
 0 <= z71 <= 1
 0 <= z72 <= 1
 0 <= z73 <= 1
 0 <= z74 <= 1
 0 <= z75 <= 1
 0 <= z76 <= 1
 0 <= z77 <= 1
 0 <= z78 <= 1
 0 <= z79 <= 1
 0 <= z80 <= 1
 0 <= z81 <= 1
 0 <= z82 <= 1
 0 <= z83 <= 1
 0 <= z84 <= 1
 0 <= z85 <= 1
 0 <= z86 <= 1
 0 <= z87 <= 1
 0 <= z88 <= 1
 0 <= z89 <= 1
 0 <= z90 <= 1
 0 <= z91 <= 1
 0 <= z92 <= 1
 0 <= z93 <= 1
 0 <= z94 <= 1
 0 <= z95 <= 1
 0 <= z96 <= 1
 0 <= z97 <= 1
 0 <= z98 <= 1
 0 <= z99 <= 1
 0 <= z100 <= 1
 0 <= z101 <= 1
 0 <= z102 <= 1
 0 <= z103 <= 1
 0 <= z104 <= 1
 0 <= z105 <= 1
 0 <= z106 <= 1
 0 <= z107 <= 1
 0 <= z108 <= 1
 0 <= z109 <= 1
 0 <= z110 <= 1
 0 <= z111 <= 1
 0 <= z112 <= 1
 0 <= z113 <= 1
 0 <= z114 <= 1
 0 <= z115 <= 1
 0 <= z116 <= 1
 0 <= z117 <= 1
 0 <= z118 <= 1
 0 <= z119 <= 1
 0 <= z120 <= 1
 0 <= z121 <= 1
 0 <= z122 <= 1
 0 <= z123 <= 1
 0 <= z124 <= 1
 0 <= z125 <= 1
 0 <= z126 <= 1
 0 <= z127 <= 1
 0 <= z128 <= 1
 0 <= z129 <= 1
 0 <= z130 <= 1
 0 <= z131 <= 1
 0 <= z132 <= 1
 0 <= z133 <= 1
 0 <= z134 <= 1
 0 <= z135 <= 1
 0 <= z136 <= 1
 0 <= z137 <= 1
 0 <= z138 <= 1
 0 <= z139 <= 1
 0 <= z140 <= 1
 0 <= z141 <= 1
 0 <= z142 <= 1
 0 <= z143 <= 1
 0 <= z144 <= 1
 0 <= z145 <= 1
 0 <= z146 <= 1
 0 <= z147 <= 1
 0 <= z148 <= 1
 0 <= z149 <= 1
 0 <= z150 <= 1
 0 <= z151 <= 1
 0 <= z152 <= 1
 0 <= z153 <= 1
 0 <= z154 <= 1
 0 <= z155 <= 1
 0 <= z156 <= 1
 0 <= z157 <= 1
 0 <= z158 <= 1
 0 <= z159 <= 1
 0 <= z160 <= 1
 0 <= z161 <= 1
 0 <= z162 <= 1
 0 <= z163 <= 1
 0 <= z164 <= 1
 0 <= z165 <= 1
 0 <= z166 <= 1
 0 <= z167 <= 1
 0 <= z168 <= 1
 0 <= z169 <= 1
 0 <= z170 <= 1
 0 <= z171 <= 1
 0 <= z172 <= 1
 0 <= z173 <= 1
 0 <= z174 <= 1
 0 <= z175 <= 1
 0 <= z176 <= 1
 0 <= z177 <= 1
 0 <= z178 <= 1
 0 <= z179 <= 1
 0 <= z180 <= 1
 0 <= z181 <= 1
 0 <= z182 <= 1
 0 <= z183 <= 1
 0 <= z184 <= 1
 0 <= z185 <= 1
 0 <= z186 <= 1
 0 <= z187 <= 1
 0 <= z188 <= 1
 0 <= z189 <= 1
 0 <= z190 <= 1
 0 <= z191 <= 1
 0 <= z192 <= 1
 0 <= z193 <= 1
 0 <= z194 <= 1
 0 <= z195 <= 1
 0 <= z196 <= 1
 0 <= z197 <= 1
 0 <= z198 <= 1
 0 <= z199 <= 1
 0 <= z200 <= 1
 0 <= z201 <= 1
 0 <= z202 <= 1
 0 <= z203 <= 1
 0 <= z204 <= 1
 0 <= z205 <= 1
 0 <= z206 <= 1
 0 <= z207 <= 1
 0 <= z208 <= 1
 0 <= z209 <= 1
 0 <= z210 <= 1
 0 <= z211 <= 1
 0 <= z212 <= 1
 0 <= z213 <= 1
 0 <= z214 <= 1
 0 <= z215 <= 1
 0 <= z216 <= 1
 0 <= z217 <= 1
 0 <= z218 <= 1
 0 <= z219 <= 1
 0 <= z220 <= 1
 0 <= z221 <= 1
 0 <= z222 <= 1
 0 <= z223 <= 1
 0 <= z224 <= 1
 0 <= z225 <= 1
 0 <= z226 <= 1
 0 <= z227 <= 1
 0 <= z228 <= 1
 0 <= z229 <= 1
 0 <= z230 <= 1
 0 <= z231 <= 1
 0 <= z232 <= 1
 0 <= z233 <= 1
 0 <= z234 <= 1
 0 <= z235 <= 1
 0 <= z236 <= 1
 0 <= z237 <= 1
 0 <= z238 <= 1
 0 <= z239 <= 1
 0 <= z240 <= 1
 0 <= z241 <= 1
 0 <= z242 <= 1
 0 <= z243 <= 1
 0 <= z244 <= 1
 0 <= z245 <= 1
 0 <= z246 <= 1
 0 <= z247 <= 1
 0 <= z248 <= 1
 0 <= z249 <= 1
 0 <= z250 <= 1
 0 <= z251 <= 1
 0 <= z252 <= 1
 0 <= z253 <= 1
 0 <= z254 <= 1
 0 <= z255 <= 1
 0 <= z256 <= 1
 0 <= z257 <= 1
 0 <= z258 <= 1
 0 <= z259 <= 1
 0 <= z260 <= 1
 0 <= z261 <= 1
 0 <= z262 <= 1
 0 <= z263 <= 1
 0 <= z264 <= 1
 0 <= z265 <= 1
 0 <= z266 <= 1
 0 <= z267 <= 1
 0 <= z268 <= 1
 0 <= z269 <= 1
Binaries
 z0  z1  z2  z3  z4  z5  z6  z7  z8  z9  z10  z11  z12  z13  z14  z15  z16 
 z17  z18  z19  z20  z21  z22  z23  z24  z25  z26  z27  z28  z29  z30  z31 
 z32  z33  z34  z35  z36  z37  z38  z39  z40  z41  z42  z43  z44  z45  z46 
 z47  z48  z49  z50  z51  z52  z53  z54  z55  z56  z57  z58  z59  z60  z61 
 z62  z63  z64  z65  z66  z67  z68  z69  z70  z71  z72  z73  z74  z75  z76 
 z77  z78  z79  z80  z81  z82  z83  z84  z85  z86  z87  z88  z89  z90  z91 
 z92  z93  z94  z95  z96  z97  z98  z99  z100  z101  z102  z103  z104  z105 
 z106  z107  z108  z109  z110  z111  z112  z113  z114  z115  z116  z117  z118 
 z119  z120  z121  z122  z123  z124  z125  z126  z127  z128  z129  z130  z131 
 z132  z133  z134  z135  z136  z137  z138  z139  z140  z141  z142  z143  z144 
 z145  z146  z147  z148  z149  z150  z151  z152  z153  z154  z155  z156  z157 
 z158  z159  z160  z161  z162  z163  z164  z165  z166  z167  z168  z169  z170 
 z171  z172  z173  z174  z175  z176  z177  z178  z179  z180  z181  z182  z183 
 z184  z185  z186  z187  z188  z189  z190  z191  z192  z193  z194  z195  z196 
 z197  z198  z199  z200  z201  z202  z203  z204  z205  z206  z207  z208  z209 
 z210  z211  z212  z213  z214  z215  z216  z217  z218  z219  z220  z221  z222 
 z223  z224  z225  z226  z227  z228  z229  z230  z231  z232  z233  z234  z235 
 z236  z237  z238  z239  z240  z241  z242  z243  z244  z245  z246  z247  z248 
 z249  z250  z251  z252  z253  z254  z255  z256  z257  z258  z259  z260  z261 
 z262  z263  z264  z265  z266  z267  z268  z269 
End
